0
Node Left Objective IInf Best_Integer Best_Bound ItCnt Gap
0+ 0 nan nan 136.4723 0.0000 nan 100.00%
0+ 0 nan nan 99.1655 0.0000 nan 100.00%
0 0 0.0000 27 99.1655 0.0000 129 100.00%
0+ 0 nan nan 93.3235 0.0000 nan 100.00%
0+ 0 nan nan 91.0050 0.0000 nan 100.00%
0 2 0.0000 27 91.0050 0.0000 129 100.00%
CPXPARAM_MIP_Cuts_GUBCovers 0
1
Node Left Objective IInf Best_Integer Best_Bound ItCnt Gap
0+ 0 nan nan 136.4723 0.0000 nan 100.00%
0+ 0 nan nan 99.1655 0.0000 nan 100.00%
0 0 0.0000 27 99.1655 0.0000 128 100.00%
0+ 0 nan nan 81.0831 0.0000 nan 100.00%
0+ 0 nan nan 59.2914 0.0000 nan 100.00%
0 2 0.0000 27 59.2914 0.0000 128 100.00%
CPXPARAM_MIP_Cuts_GUBCovers 0
2
Node Left Objective IInf Best_Integer Best_Bound ItCnt Gap
0+ 0 nan nan 136.4723 0.0000 nan 100.00%
0+ 0 nan nan 69.8576 0.0000 nan 100.00%
0 0 0.0000 23 69.8576 0.0000 121 100.00%
0+ 0 nan nan 59.2708 0.0000 nan 100.00%
0+ 0 nan nan 53.5098 0.0000 nan 100.00%
0 2 0.0000 23 53.5098 0.0000 121 100.00%
CPXPARAM_MIP_Cuts_GUBCovers 0
3
Node Left Objective IInf Best_Integer Best_Bound ItCnt Gap
0+ 0 nan nan 136.4723 0.0000 nan 100.00%
0+ 0 nan nan 69.8576 0.0000 nan 100.00%
0 0 0.0000 24 69.8576 0.0000 115 100.00%
0+ 0 nan nan 58.0305 0.0000 nan 100.00%
0+ 0 nan nan 47.4970 0.0000 nan 100.00%
0+ 0 nan nan 44.9833 0.0000 nan 100.00%
0+ 0 nan nan 42.8239 0.0000 nan 100.00%
0 2 0.0000 24 42.8239 0.0000 115 100.00%
CPXPARAM_MIP_Cuts_GUBCovers 0
4
Node Left Objective IInf Best_Integer Best_Bound ItCnt Gap
0+ 0 nan nan 115.1924 0.0000 nan 100.00%
0+ 0 nan nan 108.1598 0.0000 nan 100.00%
0+ 0 nan nan 98.2525 0.0000 nan 100.00%
0 0 0.0000 27 98.2525 0.0000 135 100.00%
0+ 0 nan nan 91.2706 0.0000 nan 100.00%
0+ 0 nan nan 70.7599 0.0000 nan 100.00%
0 2 0.0000 27 70.7599 0.0000 135 100.00%
CPXPARAM_MIP_Cuts_GUBCovers 0
5
Node Left Objective IInf Best_Integer Best_Bound ItCnt Gap
0+ 0 nan nan 115.1924 0.0000 nan 100.00%
0+ 0 nan nan 108.1598 0.0000 nan 100.00%
0+ 0 nan nan 79.8300 0.0000 nan 100.00%
0 0 0.0000 27 79.8300 0.0000 133 100.00%
0+ 0 nan nan 76.7844 0.0000 nan 100.00%
0+ 0 nan nan 60.8535 0.0000 nan 100.00%
0 2 0.0000 27 60.8535 0.0000 133 100.00%
CPXPARAM_MIP_Cuts_GUBCovers 0
6
Node Left Objective IInf Best_Integer Best_Bound ItCnt Gap
0+ 0 nan nan 115.1924 0.0000 nan 100.00%
0+ 0 nan nan 81.9438 0.0000 nan 100.00%
0 0 0.0000 23 81.9438 0.0000 129 100.00%
0+ 0 nan nan 80.6567 0.0000 nan 100.00%
0+ 0 nan nan 70.2448 0.0000 nan 100.00%
0+ 0 nan nan 68.1134 0.0000 nan 100.00%
0+ 0 nan nan 60.1150 0.0000 nan 100.00%
0+ 0 nan nan 51.1280 0.0000 nan 100.00%
0 2 0.0000 23 51.1280 0.0000 129 100.00%
CPXPARAM_MIP_Cuts_GUBCovers 0
7
Node Left Objective IInf Best_Integer Best_Bound ItCnt Gap
0+ 0 nan nan 115.1924 0.0000 nan 100.00%
0+ 0 nan nan 81.9438 0.0000 nan 100.00%
0 0 0.0000 23 81.9438 0.0000 122 100.00%
0+ 0 nan nan 68.4953 0.0000 nan 100.00%
0+ 0 nan nan 51.2217 0.0000 nan 100.00%
0 2 0.0000 23 51.2217 0.0000 122 100.00%
CPXPARAM_MIP_Cuts_GUBCovers 0
8
Node Left Objective IInf Best_Integer Best_Bound ItCnt Gap
0+ 0 nan nan 131.6037 0.0000 nan 100.00%
0+ 0 nan nan 111.2422 0.0000 nan 100.00%
0+ 0 nan nan 109.8445 0.0000 nan 100.00%
0 0 0.0000 27 109.8445 0.0000 114 100.00%
0+ 0 nan nan 98.1824 0.0000 nan 100.00%
0+ 0 nan nan 74.3084 0.0000 nan 100.00%
0 2 0.0000 27 74.3084 0.0000 114 100.00%
CPXPARAM_MIP_Cuts_GUBCovers 0
9
Node Left Objective IInf Best_Integer Best_Bound ItCnt Gap
0+ 0 nan nan 131.6037 0.0000 nan 100.00%
0+ 0 nan nan 111.2422 0.0000 nan 100.00%
0 0 0.0000 27 111.2422 0.0000 125 100.00%
0+ 0 nan nan 88.6818 0.0000 nan 100.00%
0+ 0 nan nan 77.3294 0.0000 nan 100.00%
0+ 0 nan nan 57.1840 0.0000 nan 100.00%
0 2 0.0000 27 57.1840 0.0000 125 100.00%
CPXPARAM_MIP_Cuts_GUBCovers 0
10
Node Left Objective IInf Best_Integer Best_Bound ItCnt Gap
0+ 0 nan nan 131.6037 0.0000 nan 100.00%
0+ 0 nan nan 99.6733 0.0000 nan 100.00%
0 0 0.0000 23 99.6733 0.0000 121 100.00%
0+ 0 nan nan 79.6692 0.0000 nan 100.00%
0+ 0 nan nan 74.4100 0.0000 nan 100.00%
0 2 0.0000 23 74.4100 0.0000 121 100.00%
CPXPARAM_MIP_Cuts_GUBCovers 0
11
Node Left Objective IInf Best_Integer Best_Bound ItCnt Gap
0+ 0 nan nan 131.6037 0.0000 nan 100.00%
0+ 0 nan nan 99.6733 0.0000 nan 100.00%
0 0 0.0000 23 99.6733 0.0000 121 100.00%
0+ 0 nan nan 70.7338 0.0000 nan 100.00%
0+ 0 nan nan 58.0409 0.0000 nan 100.00%
0+ 0 nan nan 50.1088 0.0000 nan 100.00%
0 2 0.0000 23 50.1088 0.0000 121 100.00%
CPXPARAM_MIP_Cuts_GUBCovers 0
12
Node Left Objective IInf Best_Integer Best_Bound ItCnt Gap
0+ 0 nan nan 110.3567 0.0000 nan 100.00%
0+ 0 nan nan 96.6816 0.0000 nan 100.00%
0 0 0.0000 27 96.6816 0.0000 120 100.00%
0+ 0 nan nan 85.4702 0.0000 nan 100.00%
0 2 0.0000 27 85.4702 0.0000 120 100.00%
CPXPARAM_MIP_Cuts_GUBCovers 0
13
Node Left Objective IInf Best_Integer Best_Bound ItCnt Gap
0+ 0 nan nan 110.3567 0.0000 nan 100.00%
0+ 0 nan nan 96.6816 0.0000 nan 100.00%
0 0 0.0000 27 96.6816 0.0000 121 100.00%
0+ 0 nan nan 67.8692 0.0000 nan 100.00%
0+ 0 nan nan 57.0866 0.0000 nan 100.00%
0 2 0.0000 27 57.0866 0.0000 121 100.00%
CPXPARAM_MIP_Cuts_GUBCovers 0
14
Node Left Objective IInf Best_Integer Best_Bound ItCnt Gap
0+ 0 nan nan 110.3567 0.0000 nan 100.00%
0+ 0 nan nan 82.1268 0.0000 nan 100.00%
0 0 0.0000 23 82.1268 0.0000 121 100.00%
0+ 0 nan nan 76.1128 0.0000 nan 100.00%
0+ 0 nan nan 71.2550 0.0000 nan 100.00%
0 2 0.0000 23 71.2550 0.0000 121 100.00%
CPXPARAM_MIP_Cuts_GUBCovers 0
15
Node Left Objective IInf Best_Integer Best_Bound ItCnt Gap
0+ 0 nan nan 110.3567 0.0000 nan 100.00%
0+ 0 nan nan 82.1268 0.0000 nan 100.00%
0 0 0.0000 23 82.1268 0.0000 117 100.00%
0+ 0 nan nan 59.2187 0.0000 nan 100.00%
0+ 0 nan nan 47.2734 0.0000 nan 100.00%
0 2 0.0000 23 47.2734 0.0000 117 100.00%
CPXPARAM_MIP_Cuts_GUBCovers 0
16
Node Left Objective IInf Best_Integer Best_Bound ItCnt Gap
0+ 0 nan nan 109.2984 0.0000 nan 100.00%
0+ 0 nan nan 97.6971 0.0000 nan 100.00%
0 0 0.0000 27 97.6971 0.0000 113 100.00%
0+ 0 nan nan 95.2179 0.0000 nan 100.00%
0+ 0 nan nan 80.2688 0.0000 nan 100.00%
0 2 0.0000 27 80.2688 0.0000 113 100.00%
CPXPARAM_MIP_Cuts_GUBCovers 0
17
Node Left Objective IInf Best_Integer Best_Bound ItCnt Gap
0+ 0 nan nan 109.2984 0.0000 nan 100.00%
0+ 0 nan nan 97.6971 0.0000 nan 100.00%
0 0 0.0000 27 97.6971 0.0000 121 100.00%
0+ 0 nan nan 49.1084 0.0000 nan 100.00%
0 2 0.0000 27 49.1084 0.0000 121 100.00%
CPXPARAM_MIP_Cuts_GUBCovers 0
18
Node Left Objective IInf Best_Integer Best_Bound ItCnt Gap
0+ 0 nan nan 109.2984 0.0000 nan 100.00%
0+ 0 nan nan 86.6088 0.0000 nan 100.00%
0 0 0.0000 23 86.6088 0.0000 118 100.00%
0+ 0 nan nan 78.0032 0.0000 nan 100.00%
0+ 0 nan nan 69.4885 0.0000 nan 100.00%
0 2 0.0000 23 69.4885 0.0000 118 100.00%
CPXPARAM_MIP_Cuts_GUBCovers 0
19
Node Left Objective IInf Best_Integer Best_Bound ItCnt Gap
0+ 0 nan nan 109.2984 0.0000 nan 100.00%
0+ 0 nan nan 86.6088 0.0000 nan 100.00%
0 0 0.0000 24 86.6088 0.0000 117 100.00%
0+ 0 nan nan 44.8537 0.0000 nan 100.00%
0+ 0 nan nan 25.3245 0.0000 nan 100.00%
0 2 0.0000 24 25.3245 0.0000 117 100.00%
CPXPARAM_MIP_Cuts_GUBCovers 0
20
Node Left Objective IInf Best_Integer Best_Bound ItCnt Gap
0+ 0 nan nan 93.3792 0.0000 nan 100.00%
0+ 0 nan nan 84.6822 0.0000 nan 100.00%
0 0 0.0000 27 84.6822 0.0000 131 100.00%
0+ 0 nan nan 70.9667 0.0000 nan 100.00%
0+ 0 nan nan 67.3552 0.0000 nan 100.00%
0+ 0 nan nan 58.3122 0.0000 nan 100.00%
0+ 0 nan nan 52.3423 0.0000 nan 100.00%
0 2 0.0000 27 52.3423 0.0000 131 100.00%
CPXPARAM_MIP_Cuts_GUBCovers 0
21
Node Left Objective IInf Best_Integer Best_Bound ItCnt Gap
0+ 0 nan nan 93.3792 0.0000 nan 100.00%
0+ 0 nan nan 84.6822 0.0000 nan 100.00%
0 0 0.0000 27 84.6822 0.0000 125 100.00%
0+ 0 nan nan 46.5828 0.0000 nan 100.00%
0+ 0 nan nan 42.4318 0.0000 nan 100.00%
0+ 0 nan nan 36.0723 0.0000 nan 100.00%
0 2 0.0000 27 36.0723 0.0000 125 100.00%
CPXPARAM_MIP_Cuts_GUBCovers 0
22
Node Left Objective IInf Best_Integer Best_Bound ItCnt Gap
0+ 0 nan nan 93.3792 0.0000 nan 100.00%
0+ 0 nan nan 77.4137 0.0000 nan 100.00%
0 0 0.0000 23 77.4137 0.0000 135 100.00%
0+ 0 nan nan 61.3589 0.0000 nan 100.00%
0+ 0 nan nan 50.1919 0.0000 nan 100.00%
0+ 0 nan nan 40.0638 0.0000 nan 100.00%
0 2 0.0000 23 40.0638 0.0000 135 100.00%
CPXPARAM_MIP_Cuts_GUBCovers 0
23
Node Left Objective IInf Best_Integer Best_Bound ItCnt Gap
0+ 0 nan nan 93.3792 0.0000 nan 100.00%
0+ 0 nan nan 77.4137 0.0000 nan 100.00%
0 0 0.0000 23 77.4137 0.0000 115 100.00%
0+ 0 nan nan 44.4047 0.0000 nan 100.00%
0+ 0 nan nan 35.8702 0.0000 nan 100.00%
0 2 0.0000 23 35.8702 0.0000 115 100.00%
CPXPARAM_MIP_Cuts_GUBCovers 0
24
Node Left Objective IInf Best_Integer Best_Bound ItCnt Gap
0+ 0 nan nan 94.5045 0.0000 nan 100.00%
0+ 0 nan nan 83.7373 0.0000 nan 100.00%
0 0 0.0000 27 83.7373 0.0000 126 100.00%
0+ 0 nan nan 75.2022 0.0000 nan 100.00%
0+ 0 nan nan 71.9146 0.0000 nan 100.00%
0+ 0 nan nan 59.6244 0.0000 nan 100.00%
0+ 0 nan nan 59.2678 0.0000 nan 100.00%
0 2 0.0000 27 59.2678 0.0000 126 100.00%
CPXPARAM_MIP_Cuts_GUBCovers 0
25
Node Left Objective IInf Best_Integer Best_Bound ItCnt Gap
0+ 0 nan nan 94.5045 0.0000 nan 100.00%
0+ 0 nan nan 83.7373 0.0000 nan 100.00%
0 0 0.0000 27 83.7373 0.0000 119 100.00%
0+ 0 nan nan 62.9306 0.0000 nan 100.00%
0+ 0 nan nan 59.8111 0.0000 nan 100.00%
0 2 0.0000 27 59.8111 0.0000 119 100.00%
CPXPARAM_MIP_Cuts_GUBCovers 0
26
Node Left Objective IInf Best_Integer Best_Bound ItCnt Gap
0+ 0 nan nan 94.5045 0.0000 nan 100.00%
0+ 0 nan nan 77.4984 0.0000 nan 100.00%
0 0 0.0000 23 77.4984 0.0000 120 100.00%
0+ 0 nan nan 68.8610 0.0000 nan 100.00%
0+ 0 nan nan 58.9289 0.0000 nan 100.00%
0+ 0 nan nan 55.5297 0.0000 nan 100.00%
0 2 0.0000 22 55.5297 0.0000 120 100.00%
CPXPARAM_MIP_Cuts_GUBCovers 0
27
Node Left Objective IInf Best_Integer Best_Bound ItCnt Gap
0+ 0 nan nan 94.5045 0.0000 nan 100.00%
0+ 0 nan nan 77.4984 0.0000 nan 100.00%
0 0 0.0000 23 77.4984 0.0000 116 100.00%
0+ 0 nan nan 42.7585 0.0000 nan 100.00%
0+ 0 nan nan 36.3658 0.0000 nan 100.00%
0 2 0.0000 23 36.3658 0.0000 116 100.00%
CPXPARAM_MIP_Cuts_GUBCovers 0
28
Node Left Objective IInf Best_Integer Best_Bound ItCnt Gap
0+ 0 nan nan 133.7092 0.0000 nan 100.00%
0+ 0 nan nan 129.6212 0.0000 nan 100.00%
0+ 0 nan nan 108.6480 0.0000 nan 100.00%
0 0 0.0000 27 108.6480 0.0000 133 100.00%
0+ 0 nan nan 93.7696 0.0000 nan 100.00%
0+ 0 nan nan 87.5537 0.0000 nan 100.00%
0 2 0.0000 27 87.5537 0.0000 133 100.00%
CPXPARAM_MIP_Cuts_GUBCovers 0
29
Node Left Objective IInf Best_Integer Best_Bound ItCnt Gap
0+ 0 nan nan 133.7092 0.0000 nan 100.00%
0+ 0 nan nan 129.6212 0.0000 nan 100.00%
0 0 0.0000 28 129.6212 0.0000 125 100.00%
0+ 0 nan nan 64.4748 0.0000 nan 100.00%
0 2 0.0000 28 64.4748 0.0000 125 100.00%
CPXPARAM_MIP_Cuts_GUBCovers 0
30
Node Left Objective IInf Best_Integer Best_Bound ItCnt Gap
0+ 0 nan nan 133.7092 0.0000 nan 100.00%
0+ 0 nan nan 114.7297 0.0000 nan 100.00%
0 0 0.0000 23 114.7297 0.0000 115 100.00%
0+ 0 nan nan 105.7685 0.0000 nan 100.00%
0+ 0 nan nan 99.8991 0.0000 nan 100.00%
0+ 0 nan nan 79.5224 0.0000 nan 100.00%
0 2 0.0000 23 79.5224 0.0000 115 100.00%
CPXPARAM_MIP_Cuts_GUBCovers 0
31
Node Left Objective IInf Best_Integer Best_Bound ItCnt Gap
0+ 0 nan nan 133.7092 0.0000 nan 100.00%
0+ 0 nan nan 114.7297 0.0000 nan 100.00%
0 0 0.0000 23 114.7297 0.0000 128 100.00%
0+ 0 nan nan 68.5774 0.0000 nan 100.00%
0+ 0 nan nan 66.6682 0.0000 nan 100.00%
0+ 0 nan nan 45.2106 0.0000 nan 100.00%
0 2 0.0000 23 45.2106 0.0000 128 100.00%
CPXPARAM_MIP_Cuts_GUBCovers 0
32
Node Left Objective IInf Best_Integer Best_Bound ItCnt Gap
0+ 0 nan nan 110.7059 0.0000 nan 100.00%
0+ 0 nan nan 93.8685 0.0000 nan 100.00%
0+ 0 nan nan 88.1652 0.0000 nan 100.00%
0 0 0.0000 27 88.1652 0.0000 119 100.00%
0+ 0 nan nan 84.7697 0.0000 nan 100.00%
0+ 0 nan nan 65.6809 0.0000 nan 100.00%
0 2 0.0000 27 65.6809 0.0000 119 100.00%
CPXPARAM_MIP_Cuts_GUBCovers 0
33
Node Left Objective IInf Best_Integer Best_Bound ItCnt Gap
0+ 0 nan nan 110.7059 0.0000 nan 100.00%
0+ 0 nan nan 93.8685 0.0000 nan 100.00%
0 0 0.0000 27 93.8685 0.0000 116 100.00%
0+ 0 nan nan 60.5684 0.0000 nan 100.00%
0+ 0 nan nan 53.1036 0.0000 nan 100.00%
0 2 0.0000 27 53.1036 0.0000 116 100.00%
CPXPARAM_MIP_Cuts_GUBCovers 0
34
Node Left Objective IInf Best_Integer Best_Bound ItCnt Gap
0+ 0 nan nan 110.7059 0.0000 nan 100.00%
0+ 0 nan nan 74.9711 0.0000 nan 100.00%
0 0 0.0000 23 74.9711 0.0000 120 100.00%
0+ 0 nan nan 70.5384 0.0000 nan 100.00%
0+ 0 nan nan 63.7576 0.0000 nan 100.00%
0+ 0 nan nan 62.4105 0.0000 nan 100.00%
0 2 0.0000 23 62.4105 0.0000 120 100.00%
CPXPARAM_MIP_Cuts_GUBCovers 0
35
Node Left Objective IInf Best_Integer Best_Bound ItCnt Gap
0+ 0 nan nan 110.7059 0.0000 nan 100.00%
0+ 0 nan nan 74.9711 0.0000 nan 100.00%
0 0 0.0000 23 74.9711 0.0000 113 100.00%
0+ 0 nan nan 53.1990 0.0000 nan 100.00%
0+ 0 nan nan 52.6681 0.0000 nan 100.00%
0+ 0 nan nan 44.8695 0.0000 nan 100.00%
0 2 0.0000 23 44.8695 0.0000 113 100.00%
CPXPARAM_MIP_Cuts_GUBCovers 0
36
Node Left Objective IInf Best_Integer Best_Bound ItCnt Gap
0+ 0 nan nan 123.7135 0.0000 nan 100.00%
0+ 0 nan nan 108.6148 0.0000 nan 100.00%
0+ 0 nan nan 99.0366 0.0000 nan 100.00%
0 0 0.0000 27 99.0366 0.0000 131 100.00%
0+ 0 nan nan 98.7082 0.0000 nan 100.00%
0+ 0 nan nan 89.6071 0.0000 nan 100.00%
0+ 0 nan nan 78.0302 0.0000 nan 100.00%
0 2 0.0000 27 78.0302 0.0000 131 100.00%
CPXPARAM_MIP_Cuts_GUBCovers 0
37
Node Left Objective IInf Best_Integer Best_Bound ItCnt Gap
0+ 0 nan nan 123.7135 0.0000 nan 100.00%
0+ 0 nan nan 108.6148 0.0000 nan 100.00%
0 0 0.0000 27 108.6148 0.0000 128 100.00%
0+ 0 nan nan 83.1888 0.0000 nan 100.00%
0+ 0 nan nan 65.1924 0.0000 nan 100.00%
0+ 0 nan nan 54.3991 0.0000 nan 100.00%
0 2 0.0000 27 54.3991 0.0000 128 100.00%
CPXPARAM_MIP_Cuts_GUBCovers 0
38
Node Left Objective IInf Best_Integer Best_Bound ItCnt Gap
0+ 0 nan nan 123.7135 0.0000 nan 100.00%
0+ 0 nan nan 89.1896 0.0000 nan 100.00%
0 0 0.0000 23 89.1896 0.0000 134 100.00%
0+ 0 nan nan 83.5087 0.0000 nan 100.00%
0+ 0 nan nan 61.7421 0.0000 nan 100.00%
0+ 0 nan nan 58.0986 0.0000 nan 100.00%
0 2 0.0000 23 58.0986 0.0000 134 100.00%
CPXPARAM_MIP_Cuts_GUBCovers 0
39
Node Left Objective IInf Best_Integer Best_Bound ItCnt Gap
0+ 0 nan nan 123.7135 0.0000 nan 100.00%
0+ 0 nan nan 89.1896 0.0000 nan 100.00%
0 0 0.0000 24 89.1896 0.0000 114 100.00%
0+ 0 nan nan 58.9767 0.0000 nan 100.00%
0+ 0 nan nan 53.6470 0.0000 nan 100.00%
0+ 0 nan nan 46.7048 0.0000 nan 100.00%
0 2 0.0000 24 46.7048 0.0000 114 100.00%
CPXPARAM_MIP_Cuts_GUBCovers 0
